language ESSENCE' 1.0
letting lastdx=110
letting cage be [
[1,4,8,0,0, 0,0, 0,0, 0,0],
[15,12,7,0,0, 0,0, 0,0, 0,0],
[3,13,1,0,0, 0,0, 0,0, 0,0],
[19,15,12,15,11,15,10,0,0, 0,0],
[3,12,3,0,0, 0,0, 0,0, 0,0],
[42,13,13,13,12,13,11,13,10,0,0],
[13,13,14,0,0, 0,0, 0,0, 0,0],
[7,1,16,0,0, 0,0, 0,0, 0,0],
[7,8,2,0,0, 0,0, 0,0, 0,0],
[18,5,14,6,14,0,0, 0,0, 0,0],
[8,7,15,0,0, 0,0, 0,0, 0,0],
[29,3,15,4,15,4,16,0,0, 0,0],
[10,3,5,0,0, 0,0, 0,0, 0,0],
[13,4,12,0,0, 0,0, 0,0, 0,0],
[50,7,9,6,9,6,8,6,7,0,0],
[24,1,3,2,3,2,4,0,0, 0,0],
[13,5,11,0,0, 0,0, 0,0, 0,0],
[29,5,2,5,1,4,1,0,0, 0,0],
[19,7,10,6,10,5,10,4,10,0,0],
[2,3,16,0,0, 0,0, 0,0, 0,0],
[5,12,9,0,0, 0,0, 0,0, 0,0],
[12,13,2,0,0, 0,0, 0,0, 0,0],
[42,10,9,9,9,8,9,8,10,0,0],
[7,15,1,0,0, 0,0, 0,0, 0,0],
[6,11,14,0,0, 0,0, 0,0, 0,0],
[13,8,13,0,0, 0,0, 0,0, 0,0],
[3,8,12,0,0, 0,0, 0,0, 0,0],
[15,11,1,0,0, 0,0, 0,0, 0,0],
[33,7,13,6,13,5,13,0,0, 0,0],
[29,15,4,16,4,16,3,0,0, 0,0],
[3,1,4,0,0, 0,0, 0,0, 0,0],
[38,2,16,2,15,2,14,3,14,3,13],
[3,10,12,10,13,0,0, 0,0, 0,0],
[15,2,10,3,10,0,0, 0,0, 0,0],
[27,10,4,10,3,9,3,8,3,0,0],
[14,9,6,0,0, 0,0, 0,0, 0,0],
[2,13,5,0,0, 0,0, 0,0, 0,0],
[34,6,5,6,6,5,6,5,7,5,8],
[51,1,6,2,6,3,6,3,7,2,7],
[22,10,1,9,1,9,2,0,0, 0,0],
[44,10,2,11,2,11,3,11,4,11,5],
[3,14,2,14,1,0,0, 0,0, 0,0],
[23,4,13,4,14,0,0, 0,0, 0,0],
[9,4,3,0,0, 0,0, 0,0, 0,0],
[1,1,11,0,0, 0,0, 0,0, 0,0],
[30,11,6,10,6,10,5,9,5,0,0],
[3,14,6,0,0, 0,0, 0,0, 0,0],
[12,11,12,0,0, 0,0, 0,0, 0,0],
[4,11,13,0,0, 0,0, 0,0, 0,0],
[15,9,15,0,0, 0,0, 0,0, 0,0],
[21,6,15,5,15,5,16,6,16,0,0],
[36,15,8,15,9,14,9,0,0, 0,0],
[9,12,8,0,0, 0,0, 0,0, 0,0],
[15,14,8,0,0, 0,0, 0,0, 0,0],
[32,7,2,7,3,6,3,6,2,6,1],
[36,16,6,15,6,15,7,16,7,16,8],
[16,12,13,0,0, 0,0, 0,0, 0,0],
[35,1,2,1,1,2,1,2,2,0,0],
[22,2,5,1,5,0,0, 0,0, 0,0],
[11,12,6,0,0, 0,0, 0,0, 0,0],
[15,1,12,1,13,0,0, 0,0, 0,0],
[3,16,9,16,10,0,0, 0,0, 0,0],
[6,15,2,0,0, 0,0, 0,0, 0,0],
[32,5,4,5,3,6,4,0,0, 0,0],
[30,4,9,5,9,3,9,3,8,2,8],
[9,11,15,0,0, 0,0, 0,0, 0,0],
[28,1,14,1,15,0,0, 0,0, 0,0],
[14,14,11,14,10,0,0, 0,0, 0,0],
[35,1,10,1,9,2,9,0,0, 0,0],
[8,12,16,0,0, 0,0, 0,0, 0,0],
[4,12,12,0,0, 0,0, 0,0, 0,0],
[11,13,16,0,0, 0,0, 0,0, 0,0],
[33,4,7,4,6,4,5,5,5,0,0],
[43,13,9,13,8,13,7,13,6,14,7],
[24,11,8,10,8,0,0, 0,0, 0,0],
[15,1,7,1,8,0,0, 0,0, 0,0],
[29,2,11,3,11,4,11,0,0, 0,0],
[25,2,12,2,13,3,12,0,0, 0,0],
[12,3,1,0,0, 0,0, 0,0, 0,0],
[19,3,2,4,2,0,0, 0,0, 0,0],
[28,3,3,3,4,4,4,0,0, 0,0],
[46,5,12,6,12,6,11,7,12,0,0],
[10,7,1,8,1,0,0, 0,0, 0,0],
[42,7,4,7,5,7,6,8,6,8,7],
[4,7,7,0,0, 0,0, 0,0, 0,0],
[35,7,8,8,8,9,8,9,7,0,0],
[10,7,14,0,0, 0,0, 0,0, 0,0],
[1,7,16,0,0, 0,0, 0,0, 0,0],
[29,8,4,8,5,9,4,0,0, 0,0],
[12,8,14,9,14,0,0, 0,0, 0,0],
[30,8,15,8,16,9,16,0,0, 0,0],
[12,9,12,9,13,0,0, 0,0, 0,0],
[7,10,7,11,7,0,0, 0,0, 0,0],
[38,10,11,11,11,12,11,12,10,0,0],
[41,10,14,10,15,10,16,11,16,0,0],
[16,11,9,11,10,0,0, 0,0, 0,0],
[24,12,1,12,2,0,0, 0,0, 0,0],
[22,12,4,12,5,13,4,0,0, 0,0],
[26,12,14,12,15,13,15,14,15,0,0],
[8,13,3,0,0, 0,0, 0,0, 0,0],
[15,14,3,15,3,0,0, 0,0, 0,0],
[16,14,4,0,0, 0,0, 0,0, 0,0],
[13,14,5,0,0, 0,0, 0,0, 0,0],
[6,14,12,0,0, 0,0, 0,0, 0,0],
[32,14,13,14,14,15,14,16,14,0,0],
[33,14,16,15,16,16,16,0,0, 0,0],
[25,15,5,16,5,0,0, 0,0, 0,0],
[2,15,13,0,0, 0,0, 0,0, 0,0],
[19,15,15,16,15,0,0, 0,0, 0,0],
[28,16,1,16,2,0,0, 0,0, 0,0],
[30,16,11,16,12,16,13,0,0, 0,0]
]
